c ---- [ banner ] ------------------------------------------------------------
c
c Kissat SAT Solver
c 
c Copyright (c) 2021-2024 Armin Biere University of Freiburg
c Copyright (c) 2019-2021 Armin Biere Johannes Kepler University Linz
c 
c Version 4.0.1 43f02cf3e992cb44653b35e5cb26f93281552ae0
c gcc (Ubuntu 13.2.0-23ubuntu4) 13.2.0 -W -Wall -O3 -DNDEBUG
c Thu Sep 12 12:27:46 CEST 2024 Linux abryzen9 6.8.0-41-generic x86_64
c
c ---- [ parsing ] -----------------------------------------------------------
c
c opened and reading DIMACS file:
c
c   /data/artifact/AMulet2.0_artifact/exp4/cnf_resyn3_64/64_64_U1_WT_KS_Multgen_resyn3.cnf
c
c parsed 'p cnf 28448 123198' header
c closing input after reading 2429874 bytes (2 MB)
c finished parsing after 0.02 seconds
c
c ---- [ options ] -----------------------------------------------------------
c
c --stable=0                       (different from default '1')
c
c ---- [ solving ] -----------------------------------------------------------
c
c  seconds switched rate     size/glue tier1  binary           remaining
c         MB reductions conflicts size  tier2     irredundant
c          level restarts redundant glue  trail           variables
c
c *  0.02 10 0 0 0  0 0   0   0 0.0 0 0 0 0 0% 14638 108558 28445 100%
c (  0.03 11 0 0 0  0 0   0   0 0.0 0 0 0 0 0% 14638 108558 28445 100%
c .  0.04 12 0 0 0  0 0   0   0 0.0 0 0 0 0 0% 14634 108558 28445 100%
c c  0.08 17 0 0 0  0 0   0   0 0.0 0 0 0 0 0% 14645 108557 28443 100%
c d  0.09 17 0 0 0  0 0   0   0 0.0 0 0 0 0 0% 14641 108557 28443 100%
c f  0.20 16 0 0 0  0 0   0   0 0.0 0 0 0 0 0% 19390 101088 31123 109%
c e  0.33 25 0 0 0  0 0   0   0 0.0 0 0 0 0 0% 13462 109231 22318 78%
c )  0.33 25 0 0 0  0 0   0   0 0.0 0 0 0 0 0% 13462 109231 22318 78%
c {  0.34 25 0 0 0  0 0   0   0 0.0 0 0 2 6 0% 13462 109231 22318 78%
c -  0.49 27 112 0 1 328 40 1001 707 2.6 11 4 3 9 15% 13641 109231 22318 78%
c -  0.75 27 258 0 2 487 44 2002 1457 2.8 21 8 2 10 19% 13678 109231 22318 78%
c d  0.85 27 246 0 2 526 39 2504 1904 2.8 21 7 2 10 22% 13696 109231 22316 78%
c u  0.87 27 246 0 2 526 39 2504 1696 2.8 21 7 2 10 22% 13699 109231 22316 78%
c v  0.89 27 246 0 2 526 39 2504 1400 2.8 21 7 2 10 22% 13699 109231 22316 78%
c w  0.90 27 246 0 2 526 39 2504 1400 2.8 21 7 2 10 22% 13699 109231 22316 78%
c x  0.91 27 246 0 2 526 39 2504 1400 2.8 21 7 2 10 22% 13700 109188 22316 78%
c t  0.93 27 246 0 2 526 39 2504 1400 2.8 21 7 2 10 22% 13694 109188 22316 78%
c f  0.95 27 246 0 2 526 39 2504 1400 2.8 21 7 2 10 22% 14325 107926 22879 80%
c u  1.00 24 246 0 2 526 39 2504 1381 2.8 21 7 2 10 22% 14328 107926 22879 80%
c v  1.02 24 246 0 2 526 39 2504 1340 2.8 21 7 2 10 22% 14328 107926 22879 80%
c
c  seconds   switched   rate       size/glue tier1     binary           remaining
c         MB  reductions conflicts       size  tier2       irredundant
c           level restarts    redundant    glue    trail           variables
c
c w  1.04 24 246 0 2 526 39 2504 1337 2.8 21 7 2 10 22% 14328 107926 22879 80%
c f  1.16 26 246 0 2 526 39 2504 1337 2.8 21 7 2 10 22% 14354 107886 22892 80%
c -  1.29 27 297 0 3 619 37 3416 1869 3.2 22 7 3 11 22% 14419 107886 22892 80%
c -  1.46 27 327 0 4 716 32 5148 2937 3.2 21 6 3 10 22% 14540 107886 22892 80%
c -  1.91 27 348 0 5 983 33 7152 3910 3.6 24 7 2 10 24% 14637 107886 22892 80%
c d  2.04 27 363 0 5 1037 35 7712 4359 3.8 26 7 2 10 24% 14626 107886 22869 80%
c u  2.07 27 363 0 5 1037 35 7712 3799 3.8 26 7 2 10 24% 14647 107886 22869 80%
c v  2.10 27 363 0 5 1037 35 7712 3267 3.8 26 7 2 10 24% 14649 107886 22869 80%
c w  2.16 27 363 0 5 1037 35 7712 3267 3.8 26 7 2 10 24% 14649 107886 22869 80%
c d  2.17 27 363 0 5 1037 35 7712 3266 3.8 26 7 2 10 24% 14645 107886 22867 80%
c t  2.18 27 363 0 5 1037 35 7712 3266 3.8 26 7 2 10 24% 14629 107886 22867 80%
c f  2.22 27 363 0 5 1037 35 7712 3266 3.8 26 7 2 10 24% 17179 104055 24142 85%
c u  2.26 27 363 0 5 1037 35 7712 3155 3.8 26 7 2 10 24% 17182 104055 24142 85%
c v  2.29 27 363 0 5 1037 35 7712 3024 3.8 26 7 2 10 24% 17182 104055 24142 85%
c w  2.33 27 363 0 5 1037 35 7712 3023 3.8 26 7 2 10 24% 17182 104055 24142 85%
c x  2.35 27 363 0 5 1037 35 7712 3023 3.8 26 7 2 10 24% 17183 104051 24142 85%
c t  2.37 27 363 0 5 1037 35 7712 3023 3.8 26 7 2 10 24% 17125 104051 24142 85%
c f  2.41 27 363 0 5 1037 35 7712 3023 3.8 26 7 2 10 24% 18767 101584 24967 88%
c -  2.73 28 350 0 6 1169 33 9388 3863 4.0 28 7 2 10 25% 18812 101584 24967 88%
c o  2.75 28 353 0 6 1171 33 10083 4449 3.9 26 7 2 10 24% 18874 101584 24967 88%
c
c  seconds   switched    rate        size/glue tier1    binary           remaining
c         MB  reductions   conflicts       size  tier2      irredundant
c           level  restarts     redundant    glue   trail           variables
c
c -  3.06 28 360 0 7 1330 32 11840 5095 4.0 28 7 2 9 24% 18975 101584 24967 88%
c s  3.21 28 362 0 7 1384 32 12519 5664 4.1 29 7 2 9 24% 19012 101391 24967 88%
c e  3.32 28 362 0 7 1384 32 12519 5664 4.1 29 7 2 9 24% 17544 102550 23852 84%
c 2  3.32 28 362 0 7 1384 32 12519 5664 4.1 29 7 2 9 24% 17543 102550 23852 84%
c s  3.33 28 362 0 7 1384 32 12519 5664 4.1 29 7 2 9 24% 17554 102120 23852 84%
c e  3.34 28 362 0 7 1384 32 12519 5664 4.1 29 7 2 9 24% 17438 102202 23795 84%
c ^  3.34 28 362 0 7 1384 32 12519 5664 4.1 29 7 2 9 24% 17438 102202 23795 84%
c -  3.56 28 382 0 8 1482 31 14486 6058 4.0 27 7 2 9 24% 17535 102200 23795 84%
c c  3.95 28 376 0 8 1629 32 15797 7261 4.2 30 7 2 9 25% 17583 102140 23783 84%
c d  3.96 28 376 0 8 1629 32 15797 7240 4.2 30 7 2 9 25% 17192 102140 23565 83%
c u  3.99 28 376 0 8 1629 32 15797 6190 4.2 30 7 2 9 25% 17214 102140 23565 83%
c v  4.04 28 376 0 8 1629 32 15797 5367 4.2 30 7 2 9 25% 17215 102140 23565 83%
c w  4.14 28 376 0 8 1629 32 15797 5361 4.2 30 7 2 9 25% 17215 102140 23565 83%
c =  4.34 28 376 0 8 1629 32 15797 5361 4.2 30 7 2 9 25% 17227 102140 23559 83%
c d  4.35 28 376 0 8 1629 32 15797 5360 4.2 30 7 2 9 25% 17204 102140 23555 83%
c t  4.37 28 376 0 8 1629 32 15797 5360 4.2 30 7 2 9 25% 17141 102140 23555 83%
c f  4.41 28 376 0 8 1629 32 15797 5360 4.2 30 7 2 9 25% 17189 101837 23678 83%
c u  4.45 28 376 0 8 1629 32 15797 5151 4.2 30 7 2 9 25% 17196 101837 23678 83%
c v  4.48 28 376 0 8 1629 32 15797 5041 4.2 30 7 2 9 25% 17196 101837 23678 83%
c w  4.62 28 376 0 8 1629 32 15797 5017 4.2 30 7 2 9 25% 17196 101837 23678 83%
c
c  seconds   switched    rate        size/glue tier1    binary           remaining
c         MB  reductions   conflicts       size  tier2      irredundant
c           level  restarts     redundant    glue   trail           variables
c
c d  4.63 28 376 0 8 1629 32 15797 5016 4.2 30 7 2 9 25% 17194 101837 23677 83%
c t  4.65 28 376 0 8 1629 32 15797 5016 4.2 30 7 2 9 25% 17190 101837 23677 83%
c -  4.98 28 375 0 9 1760 31 17314 5661 4.3 30 7 2 8 24% 17284 101836 23677 83%
c o  5.54 28 371 0 9 2005 31 20187 8221 4.2 31 7 2 8 25% 17377 101831 23677 83%
c -  5.57 28 370 0 10 2025 31 20314 7371 4.3 31 7 2 8 25% 17379 101831 23677 83%
c -  6.12 28 362 0 11 2233 30 23476 8836 4.0 32 8 2 8 24% 17490 101830 23677 83%
c s  6.28 28 369 0 11 2277 29 25033 10229 3.9 31 8 2 8 25% 17553 101675 23677 83%
c e  6.38 28 369 0 11 2277 29 25033 10229 3.9 31 8 2 8 25% 12986 108575 21067 74%
c 2  6.38 28 369 0 11 2277 29 25033 10229 3.9 31 8 2 8 25% 12985 108575 21067 74%
c s  6.39 28 369 0 11 2277 29 25033 10229 3.9 31 8 2 8 25% 13010 108231 21067 74%
c e  6.41 28 369 0 11 2277 29 25033 10229 3.9 31 8 2 8 25% 12961 108269 21046 74%
c ^  6.41 28 369 0 11 2277 29 25033 10229 3.9 31 8 2 8 25% 12961 108269 21046 74%
c -  6.66 30 361 0 12 2379 29 26792 8918 3.9 31 8 2 8 25% 13000 108267 21046 74%
c d  6.68 30 360 0 12 2381 29 26935 9054 3.9 31 8 2 8 25% 12706 108265 20871 73%
c u  6.71 30 360 0 12 2381 29 26935 7723 3.9 31 8 2 8 25% 12738 108265 20871 73%
c v  6.75 30 360 0 12 2381 29 26935 6898 3.9 31 8 2 8 25% 12744 108265 20871 73%
c w  6.75 30 360 0 12 2381 29 26935 6895 3.9 31 8 2 8 25% 12744 108265 20871 73%
c x  6.82 30 360 0 12 2381 29 26935 6895 3.9 31 8 2 8 25% 12746 107757 20871 73%
c =  6.99 30 360 0 12 2381 29 26935 6895 3.9 31 8 2 8 25% 13036 107757 20726 73%
c d  7.00 30 360 0 12 2381 29 26935 6878 3.9 31 8 2 8 25% 12727 107757 20720 73%
c
c  seconds   switched     rate        size/glue tier1    binary           remaining
c         MB   reductions   conflicts       size  tier2      irredundant
c           level   restarts     redundant    glue   trail           variables
c
c t  7.02 30 360 0 12 2381 29 26935 6878 3.9 31 8 2 8 25% 12701 107757 20720 73%
c f  7.07 30 360 0 12 2381 29 26935 6878 3.9 31 8 2 8 25% 12753 107554 20765 73%
c u  7.11 30 360 0 12 2381 29 26935 6601 3.9 31 8 2 8 25% 12759 107554 20765 73%
c v  7.13 30 360 0 12 2381 29 26935 6454 3.9 31 8 2 8 25% 12759 107554 20765 73%
c w  7.14 30 360 0 12 2381 29 26935 6453 3.9 31 8 2 8 25% 12759 107554 20765 73%
c =  7.33 30 360 0 12 2381 29 26935 6453 3.9 31 8 2 8 25% 13811 107554 20239 71%
c d  7.33 30 360 0 12 2381 29 26935 6373 3.9 31 8 2 8 25% 12715 107554 20239 71%
c t  7.35 30 360 0 12 2381 29 26935 6373 3.9 31 8 2 8 25% 12713 107554 20239 71%
c -  7.81 30 344 0 13 2533 27 30256 8429 3.9 30 8 2 8 25% 12800 107550 20239 71%
c -  8.41 30 336 0 14 2787 27 33862 10293 4.0 31 8 2 7 25% 12947 107549 20239 71%
c -  9.03 30 330 0 15 3027 28 37604 11990 4.1 32 8 2 7 25% 13017 107548 20239 71%
c o  9.45 30 323 0 15 3193 27 40287 14210 4.1 32 8 2 7 25% 13100 107548 20239 71%
c c  9.74 30 317 0 15 3332 27 41278 15082 4.1 32 8 2 7 25% 13211 106815 20104 71%
c d  9.75 30 317 0 15 3332 27 41278 14862 4.1 32 8 2 7 25% 12941 106815 20104 71%
c u  9.80 30 317 0 15 3332 27 41278 12654 4.1 32 8 2 7 25% 12989 106815 20104 71%
c v  9.86 30 317 0 15 3332 27 41278 11413 4.1 32 8 2 7 25% 12992 106815 20104 71%
c w  9.90 30 317 0 15 3332 27 41278 11412 4.1 32 8 2 7 25% 12992 106815 20104 71%
c x  9.95 30 317 0 15 3332 27 41278 11412 4.1 32 8 2 7 25% 12993 104242 20104 71%
c = 10.19 30 317 0 15 3332 27 41278 11412 4.1 32 8 2 7 25% 16391 104238 18405 65%
c d 10.20 30 317 0 15 3332 27 41278 11234 4.1 32 8 2 7 25% 12907 104238 18404 65%
c
c  seconds   switched     rate         size/glue tier1    binary           remaining
c         MB   reductions   conflicts        size  tier2      irredundant
c           level   restarts      redundant    glue   trail           variables
c
c t 10.21 30 317 0 15 3332 27 41278 11234 4.1 32 8 2 7 25% 12772 104238 18404 65%
c f 10.25 30 317 0 15 3332 27 41278 11234 4.1 32 8 2 7 25% 12802 104143 18422 65%
c u 10.30 30 317 0 15 3332 27 41278 10540 4.1 32 8 2 7 25% 12808 104143 18422 65%
c v 10.34 30 317 0 15 3332 27 41278 10089 4.1 32 8 2 7 25% 12808 104143 18422 65%
c w 10.46 30 317 0 15 3332 27 41278 10086 4.1 32 8 2 7 25% 12808 104143 18422 65%
c x 10.51 30 317 0 15 3332 27 41278 10084 4.1 32 8 2 7 25% 12839 101099 18422 65%
c = 10.76 30 317 0 15 3332 27 41278 10084 4.1 32 8 2 7 25% 17309 101099 16187 57%
c d 10.77 30 317 0 15 3332 27 41278 9788 4.1 32 8 2 7 25% 12719 101099 16187 57%
c t 10.78 30 317 0 15 3332 27 41278 9788 4.1 32 8 2 7 25% 12526 101099 16187 57%
c f 10.82 30 317 0 15 3332 27 41278 9788 4.1 32 8 2 7 25% 12557 100970 16213 57%
c - 10.86 30 317 0 16 3337 27 41476 7763 4.1 32 8 1 7 25% 12562 100970 16213 57%
c - 11.52 30 300 0 17 3654 27 45476 9394 4.0 31 8 1 7 26% 12611 100970 16213 57%
c - 12.30 30 290 0 18 4059 26 49600 11095 4.0 31 8 1 6 26% 12671 100968 16213 57%
c s 12.79 30 281 0 18 4320 26 52167 13534 4.0 31 8 1 6 26% 12694 77446 16213 57%
c e 12.87 30 281 0 18 4320 26 52167 13534 4.0 31 8 1 6 26% 11837 79156 15490 54%
c 2 12.87 30 281 0 18 4320 26 52167 13534 4.0 31 8 1 6 26% 11830 79156 15490 54%
c s 12.87 30 281 0 18 4320 26 52167 13534 4.0 31 8 1 6 26% 11835 78677 15490 54%
c e 12.88 30 281 0 18 4320 26 52167 13534 4.0 31 8 1 6 26% 11790 78741 15464 54%
c ^ 12.88 30 281 0 18 4320 26 52167 13534 4.0 31 8 1 6 26% 11790 78741 15464 54%
c - 13.17 30 281 0 19 4490 26 53843 11487 4.0 31 8 1 6 26% 11812 78741 15464 54%
c
c  seconds   switched     rate         size/glue tier1    binary          remaining
c         MB   reductions   conflicts        size  tier2      irredundant
c           level   restarts      redundant    glue   trail          variables
c
c - 13.77 30 275 0 20 4826 26 58202 12766 3.8 31 8 1 6 27% 11857 78740 15464 54%
c c 13.90 30 273 0 20 4878 25 58913 13426 3.8 31 8 1 6 27% 11886 78661 15447 54%
c d 13.91 30 273 0 20 4878 25 58913 13412 3.8 31 8 1 6 27% 11852 78661 15447 54%
c u 13.94 30 273 0 20 4878 25 58913 11834 3.8 31 8 1 6 27% 11855 78661 15447 54%
c v 13.99 30 273 0 20 4878 25 58913 9546 3.8 31 8 1 6 27% 11864 78661 15447 54%
c w 14.03 30 273 0 20 4878 25 58913 9522 3.8 31 8 1 6 27% 11864 78661 15447 54%
c x 14.13 30 273 0 20 4878 25 58913 9520 3.8 31 8 1 6 27% 11877 77287 15447 54%
c = 14.43 30 273 0 20 4878 25 58913 9520 3.8 31 8 1 6 27% 14089 77285 14341 50%
c d 14.44 30 273 0 20 4878 25 58913 9395 3.8 31 8 1 6 27% 11782 77285 14341 50%
c t 14.45 30 273 0 20 4878 25 58913 9395 3.8 31 8 1 6 27% 11516 77285 14341 50%
c f 14.49 30 273 0 20 4878 25 58913 9395 3.8 31 8 1 6 27% 11514 76946 14397 51%
c c 14.52 30 273 0 20 4878 25 58913 9395 3.8 31 8 1 6 27% 11522 76937 14393 51%
c d 14.53 30 273 0 20 4878 25 58913 9395 3.8 31 8 1 6 27% 11514 76937 14393 51%
c u 14.55 30 273 0 20 4878 25 58913 9042 3.8 31 8 1 6 27% 11503 76937 14393 51%
c v 14.59 30 273 0 20 4878 25 58913 8630 3.8 31 8 1 6 27% 11503 76937 14393 51%
c w 14.62 30 273 0 20 4878 25 58913 8606 3.8 31 8 1 6 27% 11503 76937 14393 51%
c x 14.74 30 273 0 20 4878 25 58913 8601 3.8 31 8 1 6 27% 11557 69895 14393 51%
c = 15.01 30 273 0 20 4878 25 58913 8601 3.8 31 8 1 6 27% 11699 69895 14322 50%
c d 15.01 30 273 0 20 4878 25 58913 8597 3.8 31 8 1 6 27% 11557 69895 14322 50%
c t 15.02 30 273 0 20 4878 25 58913 8597 3.8 31 8 1 6 27% 11504 69895 14322 50%
c
c  seconds   switched     rate        size/glue tier1    binary          remaining
c         MB   reductions   conflicts       size  tier2      irredundant
c           level   restarts     redundant    glue   trail          variables
c
c f 15.03 30 273 0 20 4878 25 58913 8597 3.8 31 8 1 6 27% 11502 69860 14328 50%
c - 15.44 30 269 0 21 5099 25 62674 9896 3.8 30 8 1 6 27% 11552 69859 14328 50%
c - 16.01 30 262 0 22 5480 25 67256 11954 3.7 30 8 1 6 27% 11585 69858 14328 50%
c o 16.49 30 257 0 22 5799 25 70291 14811 3.7 30 8 1 6 27% 11613 69858 14328 50%
c - 16.72 30 253 0 23 5948 25 71946 13706 3.7 30 8 1 6 27% 11632 69858 14328 50%
c - 17.43 30 247 0 24 6416 24 76741 15240 3.7 30 8 1 6 28% 11660 69857 14328 50%
c d 18.01 30 245 0 24 6788 24 79995 18293 3.7 30 8 1 6 28% 11663 69855 14317 50%
c u 18.06 30 245 0 24 6788 24 79995 16543 3.7 30 8 1 6 28% 11691 69855 14317 50%
c v 18.17 30 245 0 24 6788 24 79995 13685 3.7 30 8 1 6 28% 11697 69855 14317 50%
c w 18.23 30 245 0 24 6788 24 79995 13685 3.7 30 8 1 6 28% 11697 69855 14317 50%
c x 18.30 30 245 0 24 6788 24 79995 13678 3.7 30 8 1 6 28% 11699 69421 14317 50%
c = 18.51 30 245 0 24 6788 24 79995 13678 3.7 30 8 1 6 28% 11857 69404 14237 50%
c d 18.52 30 245 0 24 6788 24 79995 13661 3.7 30 8 1 6 28% 11686 69404 14235 50%
c t 18.53 30 245 0 24 6788 24 79995 13661 3.7 30 8 1 6 28% 11617 69404 14235 50%
c f 18.54 30 245 0 24 6788 24 79995 13661 3.7 30 8 1 6 28% 11612 69392 14238 50%
c c 18.57 30 245 0 24 6788 24 79995 13653 3.7 30 8 1 6 28% 11621 69374 14234 50%
c d 18.58 30 245 0 24 6788 24 79995 13653 3.7 30 8 1 6 28% 11613 69374 14234 50%
c u 18.61 30 245 0 24 6788 24 79995 13250 3.7 30 8 1 6 28% 11607 69374 14234 50%
c v 18.67 30 245 0 24 6788 24 79995 12732 3.7 30 8 1 6 28% 11608 69374 14234 50%
c w 18.80 30 245 0 24 6788 24 79995 12723 3.7 30 8 1 6 28% 11608 69374 14234 50%
c
c  seconds   switched     rate         size/glue tier1    binary          remaining
c         MB   reductions   conflicts        size  tier2      irredundant
c           level   restarts      redundant    glue   trail          variables
c
c x 18.88 30 245 0 24 6788 24 79995 12722 3.7 30 8 1 6 28% 11611 68824 14234 50%
c = 19.29 30 245 0 24 6788 24 79995 12722 3.7 30 8 1 6 28% 11989 68811 14044 49%
c d 19.30 30 245 0 24 6788 24 79995 12669 3.7 30 8 1 6 28% 11586 68811 14044 49%
c t 19.31 30 245 0 24 6788 24 79995 12669 3.7 30 8 1 6 28% 11358 68811 14044 49%
c f 19.32 30 245 0 24 6788 24 79995 12669 3.7 30 8 1 6 28% 11350 68762 14054 49%
c - 19.53 30 242 0 25 6908 24 81641 11883 3.7 30 8 1 6 28% 11383 68761 14054 49%
c i 19.59 30 240 0 25 6943 24 82436 12599 3.7 30 8 1 6 28% 11399 68761 14053 49%
c - 19.97 30 236 0 26 7187 23 86643 13978 3.6 29 8 1 6 28% 11439 68758 14053 49%
c i 20.11 30 232 0 26 7257 23 88838 15984 3.6 29 8 1 6 27% 11467 68758 14052 49%
c i 20.34 30 231 0 26 7386 23 90516 17536 3.6 29 8 1 6 27% 11491 68758 14051 49%
c i 20.41 30 229 0 26 7423 23 91161 18117 3.6 29 8 1 6 27% 11501 68758 14050 49%
c - 20.44 30 229 0 27 7440 23 91742 15849 3.6 29 8 1 6 27% 11494 68755 14050 49%
c i 20.48 30 227 0 27 7471 22 92514 16483 3.6 29 8 1 6 27% 11518 68755 14045 49%
c i 20.55 30 226 0 27 7517 22 92979 16884 3.6 29 8 1 6 27% 11525 68755 14044 49%
c s 20.98 30 224 0 27 7760 22 95831 19588 3.6 29 8 1 6 27% 11533 68224 14044 49%
c e 21.07 30 224 0 27 7760 22 95831 19588 3.6 29 8 1 6 27% 8033 76556 12266 43%
c 2 21.07 30 224 0 27 7760 22 95831 19588 3.6 29 8 1 6 27% 8022 76556 12266 43%
c s 21.08 30 224 0 27 7760 22 95831 19588 3.6 29 8 1 6 27% 8061 76042 12266 43%
c e 21.10 30 224 0 27 7760 22 95831 19588 3.6 29 8 1 6 27% 7976 76219 12221 43%
c ^ 21.10 30 224 0 27 7760 22 95831 19588 3.6 29 8 1 6 27% 7976 76219 12221 43%
c
c  seconds   switched     rate         size/glue tier1    binary         remaining
c         MB   reductions   conflicts        size  tier2     irredundant
c           level   restarts      redundant    glue   trail         variables
c
c i 21.14 30 224 0 27 7797 22 96157 13694 3.6 29 8 1 6 27% 7986 76219 12220 43%
c - 21.29 30 223 0 28 7893 22 96938 12537 3.6 29 8 1 5 27% 7984 76207 12220 43%
c i 21.29 30 223 0 28 7893 22 97000 12575 3.6 29 8 1 5 27% 7989 76207 12219 43%
c - 21.92 30 216 0 29 8346 22 102229 14933 3.5 29 8 1 5 27% 8005 76207 12219 43%
c d 22.27 30 214 0 29 8588 22 104637 17235 3.5 28 8 1 5 27% 8011 76191 12216 43%
c d 22.27 30 214 0 29 8588 22 104637 17231 3.5 28 8 1 5 27% 8007 76189 12214 43%
c u 22.31 30 214 0 29 8588 22 104637 15269 3.5 28 8 1 5 27% 8042 76189 12214 43%
c v 22.38 30 214 0 29 8588 22 104637 13001 3.5 28 8 1 5 27% 8056 76189 12214 43%
c w 22.44 30 214 0 29 8588 22 104637 12980 3.5 28 8 1 5 27% 8056 76189 12214 43%
c x 22.50 30 214 0 29 8588 22 104637 12980 3.5 28 8 1 5 27% 8065 76038 12214 43%
c = 22.88 30 214 0 29 8588 22 104637 12980 3.5 28 8 1 5 27% 8221 75960 12134 43%
c d 22.89 30 214 0 29 8588 22 104637 12929 3.5 28 8 1 5 27% 8051 75960 12134 43%
c t 22.90 30 214 0 29 8588 22 104637 12929 3.5 28 8 1 5 27% 7862 75960 12134 43%
c f 22.95 30 214 0 29 8588 22 104637 12929 3.5 28 8 1 5 27% 7872 75875 12142 43%
c u 22.99 30 214 0 29 8588 22 104637 12370 3.5 28 8 1 5 27% 7887 75875 12142 43%
c v 23.03 30 214 0 29 8588 22 104637 11860 3.5 28 8 1 5 27% 7892 75875 12142 43%
c w 23.18 30 214 0 29 8588 22 104637 11541 3.5 28 8 1 5 27% 7892 75875 12142 43%
c = 23.53 30 214 0 29 8588 22 104637 11541 3.5 28 8 1 5 27% 7948 75797 12108 43%
c d 23.54 30 214 0 29 8588 22 104637 11510 3.5 28 8 1 5 27% 7891 75797 12108 43%
c t 23.55 30 214 0 29 8588 22 104637 11510 3.5 28 8 1 5 27% 7870 75797 12108 43%
c
c  seconds   switched     rate          size/glue tier1    binary         remaining
c         MB   reductions   conflicts         size  tier2     irredundant
c           level   restarts       redundant    glue   trail         variables
c
c - 24.05 30 211 0 30 8933 22 107614 12114 3.5 29 8 1 5 27% 7870 75797 12108 43%
c o 24.40 30 209 0 30 9183 22 110291 14640 3.5 28 8 1 5 27% 7874 75797 12108 43%
c i 24.62 30 209 0 30 9352 22 111387 15651 3.5 28 8 1 5 27% 7883 75797 12107 43%
c - 24.90 30 207 0 31 9546 22 113091 14503 3.4 28 8 1 5 27% 7883 75795 12107 43%
c i 25.09 30 206 0 31 9691 22 114636 15939 3.4 28 8 1 5 28% 7893 75792 12106 43%
c i 25.10 30 205 0 31 9700 22 114977 16205 3.4 28 8 1 5 28% 7905 75791 12105 43%
c i 25.11 30 205 0 31 9711 22 115164 16363 3.4 28 8 1 5 28% 7912 75791 12104 43%
c - 25.73 30 202 0 32 10125 22 118658 16379 3.4 29 8 1 5 28% 7899 75791 12104 43%
c i 25.85 30 200 0 32 10190 22 120163 17782 3.4 28 8 1 5 28% 7908 75791 12103 43%
c i 26.14 30 199 0 32 10397 22 122030 19541 3.4 28 8 1 5 28% 7924 75791 12102 43%
c - 26.44 30 196 0 33 10570 22 124314 17848 3.4 28 8 1 5 28% 7919 75790 12102 43%
c i 26.53 30 196 0 33 10620 22 124982 18477 3.4 28 8 1 5 28% 7924 75790 12101 43%
c i 26.73 30 195 0 33 10736 22 126565 19965 3.4 28 8 1 5 28% 7943 75789 12100 43%
c i 26.73 30 195 0 33 10740 22 126651 20024 3.4 28 8 1 5 28% 7946 75789 12099 43%
c i 26.79 30 194 0 33 10773 22 127085 20426 3.4 28 8 1 5 28% 7948 75789 12098 43%
c i 26.90 30 192 0 33 10854 22 128587 21811 3.3 28 8 1 5 28% 7959 75789 12097 43%
c i 26.92 30 192 0 33 10858 22 128793 22004 3.3 28 8 1 5 28% 7959 75789 12096 43%
c i 26.92 30 192 0 33 10858 22 128977 22169 3.3 28 8 1 5 28% 7962 75789 12095 43%
c i 26.92 30 192 0 33 10858 22 128994 22179 3.3 28 8 1 5 28% 7962 75789 12093 43%
c - 27.08 30 191 0 34 10972 22 130058 18799 3.3 28 8 1 5 28% 7926 75789 12093 43%
c
c  seconds   switched      rate          size/glue tier1    binary         remaining
c         MB   reductions    conflicts         size  tier2     irredundant
c           level   restarts        redundant    glue   trail         variables
c
c i 27.11 30 191 0 34 10988 21 130735 19419 3.3 28 8 1 5 28% 7937 75789 12092 43%
c i 27.13 30 190 0 34 11017 21 131038 19676 3.3 28 8 1 5 28% 7945 75789 12091 43%
c i 27.15 30 190 0 34 11032 21 131397 20001 3.3 28 8 1 5 28% 7950 75789 12090 43%
c i 27.25 30 189 0 34 11076 21 132310 20868 3.3 28 8 1 5 28% 7950 75789 12089 42%
c c 27.33 30 188 0 34 11113 21 132894 21412 3.3 28 8 1 5 28% 7948 75621 12086 42%
c d 27.33 30 188 0 34 11113 21 132894 21155 3.3 28 8 1 5 28% 7992 75571 12086 42%
c d 27.33 30 188 0 34 11113 21 132894 21126 3.3 28 8 1 5 28% 7954 75557 12067 42%
c u 27.37 30 188 0 34 11113 21 132894 18664 3.3 28 8 1 5 28% 7980 75557 12064 42%
c v 27.44 30 188 0 34 11113 21 132894 15503 3.3 28 8 1 5 28% 7987 75557 12064 42%
c w 27.51 30 188 0 34 11113 21 132894 15337 3.3 28 8 1 5 28% 7987 75557 12064 42%
c x 27.58 30 188 0 34 11113 21 132894 15322 3.3 28 8 1 5 28% 8012 75087 12064 42%
c = 28.02 30 188 0 34 11113 21 132894 15322 3.3 28 8 1 5 28% 8019 75076 12056 42%
c d 28.03 30 188 0 34 11113 21 132894 15301 3.3 28 8 1 5 28% 8002 75075 12054 42%
c t 28.03 30 188 0 34 11113 21 132894 15301 3.3 28 8 1 5 28% 7943 75075 12054 42%
c u 28.08 30 188 0 34 11113 21 132894 14787 3.3 28 8 1 5 28% 7949 75075 12054 42%
c v 28.12 30 188 0 34 11113 21 132894 14161 3.3 28 8 1 5 28% 7951 75075 12054 42%
c w 28.21 30 188 0 34 11113 21 132894 13836 3.3 28 8 1 5 28% 7951 75075 12054 42%
c x 28.34 30 188 0 34 11113 21 132894 13815 3.3 28 8 1 5 28% 8001 73329 12054 42%
c = 28.81 30 188 0 34 11113 21 132894 13815 3.3 28 8 1 5 28% 8013 73329 12048 42%
c d 28.81 30 188 0 34 11113 21 132894 13812 3.3 28 8 1 5 28% 7999 73329 12048 42%
c
c  seconds   switched      rate          size/glue tier1    binary         remaining
c         MB   reductions    conflicts         size  tier2     irredundant
c           level   restarts        redundant    glue   trail         variables
c
c t 28.82 30 188 0 34 11113 21 132894 13812 3.3 28 8 1 5 28% 7962 73329 12048 42%
c i 28.83 30 188 0 34 11113 21 132894 13812 3.3 28 8 1 5 28% 7962 73329 12048 42%
c i 28.86 30 188 0 34 11127 21 133385 14261 3.3 28 8 1 5 28% 7964 73327 12047 42%
c - 28.91 30 183 0 35 11153 21 135888 13678 3.3 27 8 1 5 28% 8000 73326 12047 42%
c i 28.92 30 182 0 35 11159 20 136298 14031 3.3 27 8 1 5 27% 8012 73326 12046 42%
c i 28.95 30 179 0 35 11169 20 137749 15249 3.3 27 8 1 5 27% 8063 73325 12027 42%
c i 28.95 30 179 0 35 11169 20 137829 15303 3.3 27 8 1 5 27% 8073 73325 12025 42%
c i 28.95 30 179 0 35 11169 20 137852 15318 3.3 27 8 1 5 27% 8079 73325 11965 42%
c i 28.95 30 179 0 35 11169 20 137854 15318 3.3 27 8 1 5 27% 8080 73325 11964 42%
c i 28.95 30 179 0 35 11169 20 137861 15319 3.3 27 8 1 5 27% 8083 73325 11962 42%
c i 28.95 30 179 0 35 11169 20 137865 15320 3.3 27 8 1 5 27% 8084 73325 11951 42%
c i 28.95 30 179 0 35 11169 20 137866 15320 3.3 27 8 1 5 27% 8084 73325 11950 42%
c i 28.95 30 179 0 35 11169 20 137868 15320 3.3 27 8 1 5 27% 8085 73325 11945 42%
c } 28.95 30 179 0 35 11169 20 137870 15320 3.3 27 8 1 5 27% 8085 73325 11873 42%
c 0 28.95 30 179 0 35 11169 20 137870 15320 3.3 27 8 1 5 27% 8085 73325 11873 42%
c
c ---- [ result ] ------------------------------------------------------------
c
s UNSATISFIABLE
c
c ---- [ profiling ] ---------------------------------------------------------
c
c          19.45   67.18 %  search
c          19.45   67.18 %  focused
c           9.16   31.63 %  simplify
c           8.78   30.32 %  probe
c           4.02   13.88 %  sweep
c           3.28   11.32 %  vivify
c           0.58    2.00 %  factor
c           0.55    1.89 %  eliminate
c           0.41    1.42 %  substitute
c           0.32    1.10 %  congruence
c           0.30    1.02 %  preprocess
c           0.15    0.50 %  reduce
c           0.12    0.43 %  fastel
c           0.12    0.40 %  transitive
c           0.10    0.35 %  subsume
c           0.06    0.19 %  backbone
c           0.03    0.10 %  lucky
c           0.02    0.07 %  parse
c =============================================
c          28.95  100.00 %  total
c
c ---- [ statistics ] --------------------------------------------------------
c
c chronological:                         5678                4 %  conflicts
c conflicts:                           137870             4761.65 per second
c congruent:                              177                1 %  variables
c decisions:                          2903705               21.06 per conflict
c eliminated:                           15180               53 %  variables
c factored:                              5651               20 %  variables
c fast_eliminated:                       8805               58 %  eliminated
c fast_strengthened:                      107                8 %  per strengthened
c fast_subsumed:                           57                0 %  per subsumed
c iterations:                              38                0 %  variables
c propagations:                     138214880          4773563    per second
c reductions:                              35             3939    interval
c reordered:                                5            27574    interval
c restarts:                             11169               12    interval
c strengthened:                          1408                0 %  checks
c substituted:                           6822               24 %  variables
c subsumed:                             26080                1 %  checks
c switched:                                 0                0    interval
c vivified:                             64035               12 %  checks
c
c ---- [ glue usage ] --------------------------------------------------------
c
c focused glue 1 used 227820 clauses 60.79% accumulated 60.79% tier1
c focused glue 2 used  66499 clauses 17.74% accumulated 78.53%
c focused glue 3 used  21566 clauses  5.75% accumulated 84.28%
c focused glue 4 used  13959 clauses  3.72% accumulated 88.01%
c focused glue 5 used   8862 clauses  2.36% accumulated 90.37% tier2
c
c ---- [ resources ] ---------------------------------------------------------
c
c maximum-resident-set-size:         31604736 bytes         30 MB
c process-time:                            29s              28.95 seconds
c
c ---- [ shutting down ] -----------------------------------------------------
c
c exit 20
